NAME : portcgen-17-13
COMMENT : portcgen N=17, seed=13
TYPE : TSP
DIMENSION : 17
EDGE_WEIGHT_TYPE : EUC_2D
NODE_COORD_SECTION
1 212156 -158245
2 -197328 62082
3 250762 -200042
4 128442 253853
5 -122819 62121
6 133870 1104081
7 242734 198567
8 -252116 -157242
9 306976 -214925
10 -110004 -283228
11 63183 -75516
12 -122883 -99558
13 -140512 62784
14 -336607 -147415
15 -168201 -98970
16 70413 -133498
17 300412 289419
